NAME : SOLVED
COMMENT : Solved with tsp_solver (Copyright Chase Yalon)
TYPE : TSP
DIMENSION: 50
EDGE_WEIGHT_TYPE : EUC_2D
NODE_COORD_SECTION
1   99   368
2   151   347
3   169   342
4   201   317
5   207   291
6   236   255
7   254   220
8   224   208
9   211   181
10   208   149
11   232   125
12   266   118
13   298   131
14   316   158
15   319   188
16   302   219
17   308   251
18   309   309
19   359   331
20   370   325
21   408   311
22   443   321
23   457   351
24   449   372
25   390   385
26   352   387
27   342   399
28   351   416
29   369   433
30   373   455
31   372   485
32   368   497
33   353   513
34   317   496
35   308   470
36   301   453
37   282   422
38   256   437
39   237   476
40   227   497
41   196   499
42   183   482
43   183   466
44   196   436
45   205   421
46   211   405
47   177   394
48   159   399
49   123   415
50   111   400
